Geometry = GenFormat {
276  S
C    H    N    Zn
1      1      6.447234950000000      0.164133060000000     10.560586140000000
2      1      6.357522470000000     15.272190439999999     11.593469030000000
3      2      6.636174870000000     14.498590210000000     12.281774439999998
4      1      6.892569060000000      1.514068010000000     10.125616540000001
5      3      7.041070400000000     16.455443679999998     11.529412960000000
6      4      8.544603989999999     16.961265749999999     12.722011249999998
7      1      0.147481880000000     10.586582370000000      6.406966280000001
8      1     15.244155290000000     10.657774660000001      5.394472589999999
9      2     14.474972720000000     10.388977040000000      4.697501770000000
10     1      1.504383140000000     10.156710070000001      6.832930650000000
11     3     16.449496830000001     10.011097199999996      5.419109540000000
12     4      0.001699100000000      8.518437850000000      4.227020980000000
13     1     10.615467070000001     16.851164069999999     10.543085410000000
14     1     10.842636739999998      1.624339600000000     11.750975600000000
15     2     10.636875730000000      2.330825380000000     12.530522680000001
16     1     10.077532010000001     15.581426639999997      9.990368179999999
17     2      9.364249830000000     15.792794680000000      9.192980549999998
18     2      9.565763089999997     15.019704180000000     10.769235619999998
19     2     10.883245230000000     14.981644339999999      9.572049759999999
20     3     10.089255800000000      0.492908910000000     11.594148670000001
21     1     16.879369130000001      6.470512620000000      6.416311330000000
22     1      1.764685260000000      6.377741760000000      5.372894019999999
23     2      2.526901520000000      6.641611990000000      4.666238330000000
24     1     15.539458869999997      6.929949260000000      6.864024180000000
25     2     15.641065050000000      7.826224510000000      7.476889550000000
26     2     14.913510430000001      7.181076240000000      6.010056519999998
27     2     15.058953389999997      6.157708310000000      7.460578190000000
28     3      0.569198500000000      7.039711120000001      5.419109540000000
29     1      6.435341250000000     16.869684260000000      6.464056040000000
30     1      6.355143729999998      1.734951010000000      5.383258530000000
31     2      6.632097029999999      2.485103660000000      4.668956890000000
32     1      6.870310850000000     15.527225349999998      6.930798810000000
33     3      7.024928950000000      0.545241190000000      5.469742719999998
34     4      8.522005960000000      0.001019460000000      4.284620470000000
35     1     16.876820479999999     10.547842889999997     10.549032259999999
36     1      1.707255680000000     10.653187090000001     11.685050519999997
37     2      2.426654620000000     10.404608760000000     12.440130560000000
38     1     15.557469329999998     10.090445170000001     10.041680999999999
39     3      0.515846760000000      9.989008900000000     11.583954069999997
40     4     16.933230600000002      8.489383239999999     12.748687120000000
41     1     10.583184170000001      0.101266360000000      6.466944510000000
42     1     10.838728809999999     15.349159670000001      5.234247460000000
43     2     10.642992489999997     14.648620740000000      4.446544700000000
44     1     10.019592700000000      1.351803960000000      7.038521750000000
45     2      9.241404900000001      1.114099870000000      7.764547180000000
46     2      9.576977149999999      1.960081760000000      6.252178269999999
47     2     10.798290230000001      1.915905160000000      7.547062379999999
48     3     10.063089659999997     16.462070170000001      5.411123770000000
49     1      0.067624180000000      6.448594229999999     10.546993339999997
50     1     15.230902310000001      6.272057740000000     11.663471950000000
51     2     14.489754890000000      6.497358400000000     12.404959190000000
52     1      1.375761270000000      6.948639360000000     10.050856139999999
53     2      1.224031640000000      7.575267440000000      9.171232069999997
54     2      1.867480810000000      7.542304900000000     10.817999790000000
55     2      2.015132600000000      6.116759999999998      9.761839230000000
56     3     16.393086709999999      6.987718660000001     11.570191360000001
57     1     10.527283779999998      6.416651150000000      0.145103140000000
58     1     11.646820770000000      6.297884059999999     15.304643249999998
59     2     12.390516840000000      6.546972119999999     14.573520520000001
60     1     10.028088199999999      6.884753199999999      1.464114470000000
61     3     11.545214590000000      6.983131090000001     16.484498290000001
62     4     12.698563669999997      8.508922889999999      0.021578570000000
63     1      6.436700529999999      6.394732759999999     16.841649109999999
64     1      6.209021129999998      5.244272150000000      1.652204840000000
65     2      6.413762680000000      4.488852290000000      2.384686850000000
66     1      6.973616129999999      6.897496449999999     15.550333109999997
67     2      7.929529790000000      7.396692030000000     15.709878600000000
68     2      7.143526130000001      6.072923219999999     14.860158689999997
69     2      6.275455939999999      7.605681329999999     15.109246749999997
70     3      6.961042789999999      5.362869330000001      0.516186580000000
71     4      8.490912430000000      4.212748540000000     16.989810630000001
72     1      6.404587540000000     10.546993339999997      0.115878620000000
73     1      5.286749650000000     10.722170550000000     15.279496569999997
74     2      4.554947279999999     10.486845199999999     14.531892570000000
75     1      6.905991950000000     10.035224420000000      1.417559130000000
76     3      5.399230070000000      9.989008900000000     16.429107629999997
77     4      4.241973059999999      8.460498540000000     16.943085379999999
78     1     10.488544299999999     10.559906500000000     16.894830939999999
79     1     10.654206550000000     11.670438260000001      1.736480200000000
80     2     10.417182100000000     12.401221169999998      2.484593930000000
81     1      9.983571780000000     10.071924979999997     15.585164659999997
82     2      9.029866949999999      9.561005610000000     15.719563470000001
83     2      9.818759080000000     10.902954789999999     14.901786640000001
84     2     10.696514140000000      9.375973620000000     15.148665869999997
85     3      9.938205810000001     11.573589560000000      0.575824990000000
86     4      8.442997810000000     12.754633969999999      0.029054610000000
87     1     11.621844000000001     10.714354689999997      1.724076770000000
88     2     12.371147100000000     10.480728439999998      2.454519860000000
89     3     11.516499799999997     10.011437019999999      0.554926060000000
90     1     10.685979720000001      5.335004090000000     15.285953149999999
91     2     10.446066800000001      4.615775060000000     14.527814729999999
92     2      9.113292759999998      7.463296750000000      1.332264310000000
93     2      9.794631859999999      6.039281040000000      2.108243280000000
94     2     10.773143550000000      7.516988310000000      1.942071300000000
95     3      9.979154119999999      5.408575120000000     16.454084399999999
96     1      5.249029630000000      6.208171579999998      1.632495280000000
97     2      4.477468320000000      6.430074040000000      2.342888990000000
98     3      5.394812410000000      6.937255390000000      0.484073590000000
99     1      6.226861680000000     11.705269810000001     15.304813160000000
100    2      6.445026120000000     12.471394000000000     14.587623049999998
101    2      7.773552410000000      9.393814169999999      1.257843730000000
102    2      7.215058240000000     10.859287920000000      2.057440190000000
103    2      6.133071360000000      9.451923389999999      1.913696330000000
104    3      6.934197009999999     11.593638939999996     16.469716119999998
105    1     15.249422500000000     11.610629939999999      6.365848059999998
106    2     14.485337230000001     12.305731750000000      6.653675599999999
107    2      1.436758960000000      9.559476419999998      7.742628789999999
108    2      2.128462570000000     11.021551969999999      7.049565899999998
109    2      1.967727710000000      9.553699480000001      6.055422490000000
110    3     16.457482599999999     11.566793159999998      7.004709660000001
111    4      0.045196060000000     12.727618280000000      8.505184869999999
112    1     15.237188980000001      5.317163540000000     10.694305310000001
113    2     14.501988409999999      4.574656839999999     10.452353470000000
114    3     16.403111400000000      5.428964320000000      9.988499169999997
115    4     16.983863780000000      4.286999209999999      8.476130260000000
116    1      5.375782490000000      1.745145610000000      6.327788220000000
117    2      4.655534000000000      2.501924750000000      6.568550689999999
118    2      7.104786650000000     15.557979060000001      7.994265499999998
119    2      6.079209889999999     14.791854869999996      6.788754050000001
120    2      7.752483570000000     15.214081219999997      6.376722299999999
121    3      5.426585580000000      0.561892370000000      7.011845880000000
122    4      4.234327110000000      0.044856240000000      8.513000730000000
123    1      1.754150840000000     11.598056600000000     10.707218469999997
124    2      2.528430710000000     12.298255709999999     10.463057800000000
125    2     15.698494630000001      9.422019230000000      9.191621269999999
126    2     14.962614420000000     10.937786339999997      9.706788390000000
127    2     15.024291750000000      9.547072990000000     10.818339609999997
128    3      0.591626620000000     11.533490799999999      9.989688539999998
129    1     11.806875990000000     15.346950839999998      6.189991210000001
130    2     12.594918569999999     14.643523440000001      6.372644460000000
131    3     11.643762389999999     16.458162240000000      6.970557750000000
132    4     12.802208770000000     16.983354049999999      8.489383239999999
133    1      1.762646340000000      5.421658190000000      6.340701380000000
134    2      2.521464400000000      4.714662680000000      6.612727290000000
135    3      0.565460480000000      5.479427590000000      6.999442449999998
136    1      5.365757799999999     15.299036220000000     10.662532140000000
137    2      4.631576690000000     14.558908259999999     10.412424619999998
138    2      7.050585359999999      1.527660810000000      9.048047320000000
139    2      6.139018210000001      2.265919760000000     10.357543690000000
140    2      7.819598019999999      1.775049770000000     10.631438610000000
141    3      5.423017470000000     16.498940640000001     10.008548549999999
142    1     11.804327340000000      1.634024470000000     10.788775270000000
143    2     12.576058559999998      2.351894220000000     10.591849579999998
144    3     11.659564020000001      0.509390180000000     10.024180270000000
145    1     14.893970780000000      8.648588909999999      2.083776240000000
146    1     14.789476130000001      6.782807200000000      3.146223469999999
147    2     15.055385279999999      6.021100670000000      3.852199520000000
148    1     15.359864000000000      9.982212500000001      1.623320140000000
149    2     16.259877270000000      9.873979829999998      1.017421080000000
150    2     15.604194580000000     10.616826350000000      2.473040050000000
151    2     14.591700890000000     10.457110950000001      1.017081260000000
152    3     15.475402800000001      7.964021520000000      3.071802889999999
153    1      8.655215399999999      2.029065220000000     14.930671340000000
154    1      6.837518220000000      2.165842770000000     13.791254879999999
155    2      6.111492789999999      1.921342280000000     13.041951779999998
156    1      9.971508170000000      1.560963170000000     15.438022599999996
157    3      8.011256500000000      1.472440060000000     13.902715839999999
158    1      2.043167750000000      8.351246410000000      2.027875850000000
159    1      2.204242430000000     10.209382170000000      3.097289390000000
160    2      1.970446270000000     10.967520589999999      3.818557340000000
161    1      1.555356140000000      7.018472370000000      1.586109850000000
162    2      0.506501710000000      7.079979790000000      1.296923030000000
163    2      1.631985550000000      6.292107120000000      2.394371720000000
164    2      2.142565100000000      6.673724980000000      0.737749220000000
165    3      1.495038090000000      9.041930559999999      3.031024489999999
166    1      8.355664070000000     14.912660880000001     14.917078540000000
167    1     10.201056579999998     14.727289070000001     13.829314719999999
168    2     10.948660579999999     14.941545580000001     13.090546040000000
169    1      7.031385530000000     15.414744929999999     15.367849769999999
170    2      7.120418369999999     16.443889800000001     15.714975900000001
171    2      6.315044970000000     15.403530869999999     14.547694199999999
172    2      6.659962269999999     14.794403520000001     16.180359390000000
173    3      9.032415599999997     15.435304040000000     13.891331870000000
174    1     14.895669880000000      8.386077960000000     14.949191530000000
175    1     14.667310839999997     10.171832060000000     13.774433790000000
176    2     14.869503740000001     10.894119470000000     13.008139690000000
177    1     15.438872149999996      7.105126469999998     15.470475410000001
178    2     16.336506679999999      7.293046930000000     16.060233019999998
179    2     15.712087430000000      6.445875670000000     14.648620740000000
180    2     14.701292840000001      6.616805129999999     16.103560070000000
181    3     15.416444029999999      9.034794339999999     13.905094580000000
182    1      8.380980659999999      2.044866850000000      2.085645250000000
183    1     10.207003430000000      2.227859920000000      3.206031790000000
184    2     10.942034089999996      2.011224670000000      3.956354349999999
185    1      7.070464830000000      1.535136850000000      1.604460130000000
186    3      9.040741189999999      1.518485670000000      3.119887420000000
187    1      2.028555490000000      8.593198250000000     14.915039619999998
188    1      2.209509640000000      6.803026490000001     13.739602240000000
189    2      1.976732940000000      6.079379800000000     12.983672649999997
190    1      1.515767110000000      9.877547939999999     15.458241890000000
191    3      1.469211770000000      7.943122589999999     13.892691149999999
192    1      8.592518609999997     14.944094230000001      2.068994070000000
193    1      6.816789200000000     14.769426749999999      3.267369300000000
194    2      6.112172430000000     14.997106150000000      4.041988990000000
195    1      9.879247039999999     15.440741160000000      1.515597200000000
196    3      7.970817919999998     15.487976140000001      3.116829040000000
197    1      2.088533720000000     14.926763409999998      8.644001339999999
198    1      3.098138940000000     14.905014929999997      6.746786279999998
199    2      3.782026689999999     15.205755630000001      5.977773620000001
200    1      1.654753490000000     15.335736780000001     10.005150349999999
201    3      3.055151710000000     15.539798690000000      7.957734850000000
202    1     14.994557499999999     14.914529889999999      8.379961200000000
203    1     14.835861559999998     13.828635079999998     10.228581999999999
204    2     15.074585110000001     13.105837940000001     10.983831949999999
205    1     15.490354879999998     15.378893919999998      7.058061400000000
206    2     16.493163700000000     15.793134499999997      7.160687039999998
207    2     15.545745539999997     14.549563210000001      6.354634000000000
208    2     14.828725339999997     16.146717209999998      6.663530379999999
209    3     15.543536710000000     13.905944130000000      9.061130390000001
210    1     14.984192989999999      2.067125060000000      8.575187789999999
211    1     13.788366409999997      2.254535789999999      6.798948650000000
212    2     13.019523660000001      2.027875850000000      6.086855840000000
213    1     15.539288960000000      1.549749110000000      9.852910990000000
214    3     13.945193339999998      1.519165310000000      7.941933220000000
215    1      2.069843620000000      2.123195360000000      8.366878130000000
216    1      2.148851770000000      3.177656820000000     10.238266870000000
217    2      1.881923160000000      3.891618640000000     10.992497360000000
218    1      1.624679420000000      1.673613500000000      7.022550210000000
219    2      0.740807600000000      1.041548300000000      7.114981250000000
220    2      1.359959640000000      2.527751070000000      6.402548619999998
221    2      2.411872450000000      1.098128330000000      6.540685449999999
222    3      1.493678810000000      3.121756430000000      9.039381909999999
223    1      3.107653899999999      2.212568020000000     10.246762369999997
224    2      3.810401660000000      1.945809320000000     11.011357370000001
225    3      3.058719820000000      1.546181000000000      9.053144619999999
226    1      2.158196819999999     13.921405940000000      6.745087180000000
227    2      1.889059380000000     13.226134220000000      5.974545330000000
228    2      0.661799450000000     15.783789450000000      9.959954289999997
229    2      1.597323910000000     14.474462990000001     10.668139170000000
230    2      2.351554400000000     16.064310859999999     10.413444080000000
231    3      1.521374140000000     13.933299640000000      7.955186200000000
232    1     13.874170959999999     14.790835410000000     10.210231719999999
233    2     13.133533270000001     15.040603110000001     10.944242920000001
234    3     13.975267409999999     15.477951450000001      9.031396140000000
235    1     14.738163309999997      3.228459910000000      6.783147020000000
236    2     14.932880170000001      3.990336349999999      6.054233120000000
237    2     16.436753580000001      0.961350780000000      9.658703859999999
238    2     15.815052890000000      2.372283420000000     10.509952960000000
239    2     14.807486590000000      0.913945890000000     10.346499540000000
240    3     15.494602629999997      3.109692820000000      7.916106900000000
241    1      6.814070639999999      3.124814810000000     14.756003860000000
242    2      6.058990600000000      3.849820780000000     14.989120379999999
243    2      9.875509019999999      1.228619210000000     16.471245310000000
244    2     10.702630900000001      2.367865759999999     15.417463489999998
245    2     10.330188179999997      0.735370480000000     14.827535970000000
246    3      7.973026750000000      3.038500530000000     15.477101900000001
247    1      6.782297470000000     13.808585700000000      2.304829150000000
248    2      6.037921759999999     13.064209989999997      2.100427420000000
249    2      9.712565329999997     15.905614920000000      0.543542090000000
250    2     10.577916960000000     14.617867030000001      1.373042710000000
251    2     10.314216640000000     16.175262090000000      2.189290350000000
252    3      7.914917530000000     13.919367019999999      1.545671270000000
253    1     13.712416639999999     10.168773679999997     14.743430520000000
254    2     12.945612810000000     10.886303610000001     14.959046310000000
255    3     13.857689690000001      9.029697040000000     15.487296499999999
256    1     10.210571540000000      3.165083480000000      2.219874150000000
257    2     10.955287069999999      3.892298279999999      1.963479960000000
258    2      7.203674270000000      0.570727690000000      1.113590140000000
259    2      6.639403160000000      2.236015600000000      0.892877050000000
260    2      6.385557619999998      1.391902720000000      2.438378410000000
261    3      9.045328760000000      3.050224320000000      1.511859180000000
262    1      3.198215929999999      6.805405230000000     14.674447059999997
263    2      3.970626789999999      6.087025750000000     14.866445359999997
264    2      0.940112030000000      9.694724780000000     16.366410840000000
265    2      2.339830610000000     10.540876580000001     15.714126349999999
266    2      0.868070190000000     10.358733059999997     14.728818259999999
267    3      3.082167399999999      7.946690699999999     15.419332499999999
268    1     10.188992970000001     13.795332719999999     14.820229840000000
269    2     10.930989940000000     13.071346209999998     15.093615029999999
270    3      9.011856489999998     13.912060889999998     15.507685700000000
271    1     13.808415790000000      6.797249550000000      2.203562790000000
272    2     13.072025849999999      6.056441950000000      1.961271130000000
273    3     13.875530239999998      7.986619550000000      1.531228920000000
274    1      3.163384380000000     10.182876210000000      2.132710320000000
275    2      3.903002609999999     10.914678579999999      1.873597570000000
276    3      3.060758740000000      8.998263690000000      1.455958790000000
0.000000000000000      0.000000000000000      0.000000000000000
16.991000000000000      0.000000000000000      0.000000000000000
0.000000000000000     16.991000000000000      0.000000000000000
0.000000000000000      0.000000000000000     16.991000000000000
}
Hamiltonian = xTB {
  Method = "GFN2-xTB"
  kPointsAndWeights = SuperCellFolding {
2   0   0
0   2   0
0   0   2
0.5 0.5 0.5
  }
  ShellResolvedSCC = Yes
  SCC = Yes
  ReadInitialCharges = No
  InitialCharges = {}
  SCCTolerance = 1.0000000000000001E-005
  EwaldParameter = 0.0000000000000000
  EwaldTolerance = 1.0000000000000001E-009
  ConvergentSCCOnly = Yes
  SpinPolarisation = {}
  ElectricField = {}
  Solver = RelativelyRobust {}
  Charge = 0.0000000000000000
  MaxSCCIterations = 100
  Dispersion = {}
  Solvation = {}
  Electrostatics = GammaFunctional {}
  Differentiation = FiniteDiff {
    Delta = 1.2207031250000000E-004
  }
  ForceEvaluation = "Traditional"
  Mixer = Broyden {
    MixingParameter = 0.20000000000000001
    InverseJacobiWeight = 1.0000000000000000E-002
    MinimalWeight = 1.0000000000000000
    MaximalWeight = 100000.00000000000
    WeightFactor = 1.0000000000000000E-002
  }
  Filling = Fermi {
    Temperature = 9.5004460357391702E-004
    IndependentKFilling = No
  }
}
Driver = GeometryOptimization {
  LatticeOpt = No
  Optimizer = Rational {
    DiagLimit = 1.0000000000000000E-002
  }
  MovedAtoms = "1:-1"
  Convergence = {
    Energy = 1.7976931348623157E+308
    GradNorm = 1.7976931348623157E+308
    GradElem = 1.0000000000000000E-004
    DispNorm = 1.7976931348623157E+308
    DispElem = 1.7976931348623157E+308
  }
  MaxSteps = 5520
  OutputPrefix = "geo_end"
  AppendGeometries = No
}
Parallel = {
  Groups = 1
  UseOmpThreads = Yes
  Blacs = BlockSize {
32
  }
}
Analysis = {
  WriteEigenvectors = Yes
  WriteBandOut = Yes
  MullikenAnalysis = Yes
  WriteNetCharges = Yes
  ProjectStates = {}
  AtomResolvedEnergies = No
  CalculateForces = No
  EigenvectorsAsText = No
}
Options = {
  WriteDetailedOut = Yes
  TimingVerbosity = 1
  WriteChargesAsText = Yes
  WriteAutotestTag = No
  WriteDetailedXML = No
  WriteResultsTag = No
  RandomSeed = 0
  WriteHS = No
  WriteRealHS = No
  MinimiseMemoryUsage = No
  ShowFoldedCoords = No
}
ParserOptions = {
  ParserVersion = 11
  WriteHSDInput = Yes
  StopAfterParsing = No
  IgnoreUnprocessedNodes = No
}
Reks = None {}
ExcitedState = {}
