Geometry = GenFormat {
360  S
C    H    N    Zn   O    S    K
1      1     15.347970300000000      8.295006200000000      1.889399200000000
2      1     15.257918000000000      6.412403400000001      2.920752900000000
3      2     15.536570399999997      5.639312899999999      3.610587500000000
4      1     15.793134499999997      9.645790699999999      1.454429600000000
5      3     15.940956200000000      7.594977000000000      2.856187100000000
6      4      0.453659700000000      8.101308800000000      4.050654400000000
7      1      9.047707500000000      1.727984700000000     14.726099700000001
8      1      7.153211000000000      1.797647800000000     13.713436100000001
9      2      6.383518700000000      1.529190000000000     13.016805099999997
10     1     10.403589299999997      1.298112400000000     15.152573800000001
11     3      8.357872900000000      1.151989800000000     13.737223499999997
12     4      8.901584899999998     16.649480900000000     12.546154399999999
13     1      2.524862600000000      7.990867300000000      1.870709100000000
14     1      2.752542000000000      9.754533100000002      3.078769200000000
15     2      2.546950900000000     10.463057800000000      3.858656099999999
16     1      1.987947000000000      6.721639599999999      1.318501600000000
17     2      1.272625900000000      6.934027099999999      0.521623700000000
18     2      1.474818800000000      6.160936599999999      2.096689400000000
19     2      2.791621300000000      6.121857300000000      0.900523000000000
20     3      1.998141600000000      8.624631600000001      2.922452000000000
21     1      8.787745200000000     14.602065400000001     14.734595199999999
22     1     10.665250699999998     14.508614900000000     13.691347799999999
23     2     11.426447500000000     14.773674500000000     12.984522199999997
24     1      7.448854400000000     15.060822399999999     15.183157599999999
25     2      7.550800400000000     15.957947199999998     15.796532699999997
26     2      6.823585600000000     15.312289200000000     14.328510300000001
27     2      6.968009100000001     14.289430999999997     15.779541699999999
28     3      9.469084300000000     15.171263899999998     13.737223499999997
29     1     15.334377499999997      8.009557400000000     14.782169999999997
30     1     15.254519800000001      9.866673700000000     13.701542399999997
31     2     15.531473099999998     10.615976800000000     12.987920399999997
32     1     15.769347100000001      6.667268400000000     15.249422500000000
33     3     15.925664299999998      8.675604600000002     13.788196500000000
34     4      0.431571400000000      8.131892600000000     12.603923800000000
35     1      8.786046100000000      1.688905400000000      1.877505500000000
36     1     10.607481300000000      1.792550500000000      3.012504300000000
37     2     11.327899700000000      1.546181000000000      3.768603799999999
38     1      7.465845400000000      1.230148400000000      1.369474600000000
39     3      9.416412200000000      1.129901500000000      2.912257400000000
40     4      8.842116400000000     16.620596199999998      4.077840000000000
41     1      2.492579700000000      8.232139499999999     14.785568199999997
42     1      2.747444700000000      6.488862900000000     13.553720700000000
43     2      2.552048199999999      5.788833699999999     12.765338300000000
44     1      1.928478500000000      9.482677100000000     15.358164900000000
45     2      1.150290700000000      9.244803100000000     16.083680600000001
46     2      1.486712500000000     10.090954900000000     14.571481600000000
47     2      2.706666299999999     10.046778300000001     15.866195800000000
48     3      1.972655100000000      7.601773399999999     13.730427100000000
49     1      8.967849799999998     14.579977099999999      1.875806400000000
50     1      7.139618200000000     14.403270700000000      2.990416000000000
51     2      6.398810600000000     14.627551900000000      3.732922700000000
52     1     10.276156799999997     15.079512499999996      1.379669200000000
53     2     10.124936900000000     15.706480400000000      0.499535400000000
54     2     10.767196700000001     15.674197500000000      2.145963300000000
55     2     10.915018399999999     14.248652600000000      1.090822200000000
56     3      8.301802600000000     15.118591800000001      2.898664600000000
57     1      2.436509400000000     14.547694199999999      8.463217100000000
58     1      3.556216300000000     14.428757200000000      6.633286400000000
59     2      4.300422100000000     14.678524899999999      5.902673399999999
60     1      1.936974000000000     15.016645800000001      9.783417799999997
61     3      3.454270300000000     15.115193600000000      7.812461799999999
62     4      4.607959200000000     16.640985400000002      8.340881899999999
63     1     15.337775699999996     14.525605900000000      8.169272800000000
64     1     15.108397199999997     13.375315199999998      9.970318799999999
65     2     15.313988300000000     12.620914800000000     10.704330000000001
66     1     15.874691300000000     15.028539499999999      6.877956800000000
67     2     16.829585500000000     15.528074899999998      7.037672200000000
68     2     16.044601300000000     14.204476000000000      6.188122200000000
69     2     15.174662099999997     15.737064200000001      6.436190800000000
70     3     15.861098499999997     13.494252200000000      8.835319999999998
71     4      0.400987600000000     12.343961500000001      8.318793599999999
72     1     15.305492799999998      1.687206300000000      8.434332400000001
73     1     14.187484999999999      1.862213600000000      6.607799899999999
74     2     13.455172900000001      1.627737800000000      5.860195900000000
75     1     15.806727300000000      1.175777200000000      9.737542100000001
76     3     14.299625600000001      1.129901500000000      7.756391500000000
77     4     13.142538499999999     16.591711499999999      8.271218800000000
78     1      2.397430099999999      1.700799100000000      8.223644000000000
79     1      2.563941900000000      2.810311400000000     10.055273800000000
80     2      2.326067900000000      3.540924399999999     10.804576900000001
81     1      1.892797400000000      1.213157400000000      6.913637899999999
82     2      0.939602300000000      0.701728300000000      7.047866799999999
83     2      1.727984700000000      2.044017300000000      6.230599699999999
84     2      2.606419400000000      0.516526400000000      6.476969199999998
85     3      1.846921700000000      2.715161799999999      8.894788499999999
86     4      0.351713700000000      3.896036300000000      8.347678300000000
87     1      3.530729800000000      1.853718100000000     10.043380099999997
88     2      4.280032900000000      1.620941400000000     10.773993100000000
89     3      3.425385599999999      1.151989800000000      8.874399300000000
90     1      2.594525700000000     13.467066599999999      6.614596300000000
91     2      2.354952600000000     12.746648199999999      5.856797699999999
92     2      1.022858200000000     15.594339799999997      9.650887999999998
93     2      1.704197300000000     14.170494000000000     10.427376700000000
94     2      2.682878900000000     15.648711000000000     10.260864900000000
95     3      1.887700100000000     13.540127899999998      7.781877999999999
96     1     14.148405700000000     14.338704900000000      9.951628700000001
97     2     13.377014299999997     14.561287000000000     10.661852499999998
98     3     14.294528300000001     15.067618800000000      8.803037099999997
99     1     15.127087299999999      2.845992499999999      6.633286400000000
100    2     15.344572100000001      3.610587500000000      5.916266200000000
101    2     16.674967400000000      0.533517400000000      9.577826699999999
102    2     16.115963499999999      1.999840700000000     10.376403700000001
103    2     15.033636800000000      0.592985900000000     10.233679299999999
104    3     15.833912900000000      2.733851900000000      7.797169899999998
105    1      7.158308300000000      2.750842900000000     14.685321299999996
106    2      6.393713299999999      3.445774800000000     14.972469199999999
107    2     10.337324399999998      0.700029200000000     16.061592300000001
108    2     11.028858100000001      2.162954300000000     15.368359499999997
109    2     10.867443600000000      0.694931900000000     14.374385999999999
110    3      8.366368400000001      2.706666299999999     15.324182900000000
111    4      8.945761500000000      3.868850700000000     16.824488199999998
112    1      7.146414599999998     13.448376500000000      2.021929000000000
113    2      6.410704299999999     12.705869800000000      1.780656800000000
114    3      8.311997200000000     13.560517100000000      1.316802500000000
115    4      8.893089399999999     12.418721900000000     16.795603500000002
116    1     14.275838199999999      9.876868300000000     14.646241999999999
117    2     13.555419799999999     10.632967799999998     14.887514200000000
118    2     16.005521999999999      6.697852200000000     16.313059100000000
119    2     14.979265599999998      5.931558100000000     15.108397199999997
120    2     16.652879100000000      6.354634000000000     14.695515900000000
121    3     14.326811199999996      8.692595600000001     15.330979299999999
122    4     13.134043000000000      8.176069200000001     16.831284600000000
123    1     10.653357000000000      2.738949200000000      2.035521800000000
124    2     11.428146600000000      3.438978400000000      1.790851400000000
125    2      7.606870700000000      0.562402100000000      0.519924600000000
126    2      6.872859500000001      2.077999300000000      1.034751900000000
127    2      6.932327999999998      0.688135500000000      2.145963300000000
128    3      9.492871700000000      2.672684300000000      1.318501600000000
129    1      3.715931700000000      6.487163799999999     14.508614900000000
130    2      4.504314100000000      5.783736400000000     14.692117700000001
131    3      3.552818100000000      7.598375200000000     15.290200900000000
132    4      4.711604299999999      8.123397100000000     16.807497200000000
133    1     10.663551599999998     13.553720700000000     14.659834800000000
134    2     11.421350200000001     12.846895099999999     14.931690800000000
135    3      9.465686100000001     13.609791000000001     15.317386500000000
136    1     14.265643600000001      6.439589000000000      1.991345200000000
137    2     13.531632399999999      5.698781400000000      1.739878400000000
138    2     15.951150799999999      9.659383500000001      0.375501100000000
139    2     15.038734099999997     10.396792899999999      1.685507200000000
140    2     16.720843100000000      9.905752999999999      1.959062300000000
141    3     14.323412999999997      7.639153600000000      1.337191700000000
142    1      3.712533499999999      9.764727700000000      2.117078600000000
143    2      4.485624000000000     10.483447000000000      1.919983000000000
144    3      3.569809100000000      8.639923499999997      1.352483600000000
145    1      6.803196399999998     16.780311600000001     10.403589299999997
146    1      6.697852200000000     14.914699799999998     11.465526799999999
147    2      6.964610899999998     14.151803899999999     12.170653300000001
148    1      7.268749800000000      1.123105100000000      9.941434099999999
149    2      8.169272800000000      1.014362700000000      9.336554500000000
150    2      7.513420200000000      1.756869400000000     10.792683199999999
151    2      6.500756600000000      1.597154000000000      9.336554500000000
152    3      7.384288600000000     16.095574299999999     11.390766400000000
153    1      0.564101200000000     10.160617999999999      6.259484400000000
154    1     15.738763300000000     10.296545999999999      5.119388299999999
155    2     15.011548499999996     10.051875600000001      4.370085199999998
156    1      1.880903700000000      9.691666400000001      6.765816200000000
157    3     16.911142299999998      9.603313200000001      5.231528900000000
158    1     10.943903100000000     16.482969099999998     10.347519000000000
159    1     11.103618500000000      1.349085400000000     11.416252899999998
160    2     10.870841800000001      2.108583100000000     12.138370400000001
161    1     10.454562299999999     15.149175600000000      9.905752999999999
162    2      9.407916699999999     15.212042300000000      9.615206899999999
163    2     10.532720899999997     14.423659899999997     10.712825499999999
164    2     11.042450900000000     14.805957399999999      9.056203000000000
165    3     10.395093800000000      0.181803700000000     11.349987999999998
166    1      0.265059600000000      6.053893300000000      6.244192500000000
167    1      2.110282200000000      5.866992300000000      5.156768500000000
168    2      2.857886200000000      6.082777999999998      4.419359100000000
169    1     15.930761600000000      6.555127799999999      6.696153100000000
170    2     16.020813900000000      7.584782399999999      7.042769499999999
171    2     15.215440500000000      6.544933200000000      5.875487800000000
172    2     15.560357799999998      5.934956300000000      7.508322900000000
173    3      0.941301400000000      6.575516999999999      5.219635199999998
174    1      6.804895500000001     16.516951100000000      6.276475400000000
175    1      6.575516999999999      1.311705200000000      5.102397300000000
176    2      6.779409000000000      2.033822700000000      4.336103199999998
177    1      7.348607500000000     15.235829699999998      6.798099100000000
178    2      8.245732300000000     15.424429800000000      7.387686800000000
179    2      7.620463499999999     14.576578899999999      5.977433800000000
180    2      6.609499000000000     14.748187999999997      7.431863400000000
181    3      7.324820099999998      0.175007300000000      5.233228000000000
182    1      0.290546100000000     10.175909899999997     10.405288399999998
183    1      2.115379500000000     10.359412700000000     11.524995300000000
184    2      2.851089800000000     10.141927899999997     12.274298400000001
185    1     15.969840899999999      9.666179899999999      9.922744000000000
186    3      0.949796900000000      9.649188899999999     11.438341200000000
187    1     10.928611199999997     16.724241299999999      6.242493400000000
188    1     11.110414900000000     14.935089000000000      5.068415300000000
189    2     10.877638200000000     14.209573300000001      4.312315800000000
190    1     10.415483000000000      1.017760900000000      6.786205399999998
191    3     10.369607299999997     16.075185100000002      5.221334300000001
192    1      0.502933600000000      6.084477099999998     10.388297400000001
193    1     15.716675000000000      5.909469800000000     11.586162900000000
194    2     15.011548499999996      6.137149200000001     12.360952499999998
195    1      1.787453200000000      6.580614300000000      9.834390800000000
196    3     16.870363900000001      6.628189100000000     11.436642100000000
197    1     10.989778799999998      6.067486099999998     16.963814400000000
198    1     11.997345099999999      6.045397800000000     15.065919700000000
199    2     12.682082399999999      6.346138499999999     14.296227400000001
200    1     10.554809199999999      6.476969199999998      1.333793500000000
201    3     11.954867600000000      6.680861200000000     16.277377999999999
202    1      6.903443300000000      6.055592400000000     16.698754800000000
203    1      6.745427000000000      4.969867499999999      1.556375600000000
204    2      6.985000100000001      4.246050900000000      2.312475100000000
205    1      7.399580500000000      6.519446700000000     15.376855000000001
206    2      8.402049500000000      6.934027099999999     15.480500100000000
207    2      7.455650799999999      5.690285899999999     14.673427600000000
208    2      6.738630599999999      7.287439900000000     14.982663800000001
209    3      7.453951699999999      5.046327000000000      0.389093900000000
210    1      6.893248700000000     10.197998199999999     16.894151300000001
211    1      5.697082300000000     10.386598299999999     15.118591800000001
212    2      4.929089100000001     10.158918900000000     14.406668900000000
213    1      7.448854400000000      9.681471799999999      1.180874500000000
214    3      5.853399499999999      9.650887999999998     16.260386999999998
215    1     10.969389600000000     10.254068500000001     16.685161999999998
216    1     11.049247299999999     11.309209599999999      1.566570200000000
217    2     10.782488600000001     12.022831600000000      2.319271500000000
218    1     10.525924500000000      9.805506099999999     15.341173900000001
219    2      9.640693400000000      9.173440900000001     15.434624399999997
220    2     10.260864900000000     10.660153399999999     14.722701500000001
221    2     11.312607799999999      9.229511199999997     14.860328600000001
222    3     10.393394700000000     11.253139299999997      0.367005600000000
223    1     12.007539699999997     10.344120800000001      1.575065700000000
224    2     12.710967100000000     10.077362099999997      2.339660699999999
225    3     11.959964899999999      9.678073599999999      0.380598400000000
226    1     11.057742799999998      5.061618900000000     15.064220600000001
227    2     10.789285000000000      4.366687000000000     14.294528300000001
228    2      9.562534800000000      6.923832500000000      1.287917800000000
229    2     10.497039800000000      5.613826400000001      1.996442500000000
230    2     11.251440199999998      7.204184000000000      1.741577500000000
231    3     10.420580299999999      5.073512600000000     16.273979799999999
232    1      5.783736400000000      5.931558100000000      1.537685500000000
233    2      5.042928800000000      6.181325799999999      2.271696700000000
234    3      5.883983300000000      6.617994500000000      0.358510100000000
235    1      6.646879200000000     11.360182600000000     15.101600800000000
236    2      6.842275700000000     12.121379400000000     14.372686900000000
237    2      8.345979200000000      9.091884100000000      0.987177100000000
238    2      7.724108600000000     10.503836199999997      1.838426200000000
239    2      6.716542300000000      9.046008400000000      1.673613500000000
240    3      7.404677799999999     11.241245599999999     16.234900499999998
241    1     15.714975900000001     11.256537499999997      6.084477099999998
242    2     14.958876399999999     11.982053200000001      6.317253800000000
243    2      1.785754100000000      9.360341899999996      7.798868999999999
244    2      2.611516700000000     10.498738899999999      6.745427000000000
245    2      2.239413800000000      8.865903799999998      6.155839300000000
246    3     16.873762100000000     11.169883400000000      6.804895500000001
247    1     15.682693000000000      4.949478300000000     10.624472299999999
248    2     14.938487199999999      4.203573400000000     10.418881200000000
249    2      1.622640500000000      7.046167699999999      8.862505599999999
250    2      2.487482400000000      5.758249899999998      9.691666400000001
251    2      2.222422800000000      7.314625500000000     10.507234400000000
252    3     16.815992699999999      5.059919800000000      9.864974600000000
253    1      5.620622800000000      1.310006100000000      6.070884300000000
254    2      4.854328700000000      2.027026300000000      6.286670000000000
255    3      5.766745400000000      0.169910000000000      6.815090100000000
256    1      2.120476800000000     11.295616799999999     10.539517300000000
257    2      2.864682600000000     12.022831600000000     10.281254100000000
258    2     16.104069799999998      8.702790199999999      9.433403200000001
259    2     15.539968600000000     10.367908199999999      9.212520200000000
260    2     15.286802700000001      9.523455499999997     10.757002099999999
261    3      0.954894200000000     11.181777100000000      9.830992600000000
262    1     12.097591999999999     14.936788099999999      6.001221199999999
263    2     12.870682499999999     14.218068799999999      6.193219500000000
264    2      9.839488099999999      0.835957200000000      7.693524800000000
265    2     11.239546499999999      1.682109000000000      7.042769499999999
266    2      9.768125899999999      1.498606200000000      6.057291500000000
267    3     11.982053200000001     16.078583300000002      6.747126100000000
268    1      2.098388500000000      4.935885499999999      6.147343800000000
269    2      2.840895200000000      4.212068900000000      6.422598000000000
270    3      0.920912200000000      5.053123400000000      6.835479299999998
271    1      5.717471500000000     14.928292600000001     10.522526299999999
272    2      4.981761200000000     14.187484999999999     10.279555000000000
273    3      5.785435500000000     16.117662599999999      9.849682699999997
274    1     12.063609999999999      1.323598900000000     10.451164100000000
275    2     12.802718499999999      2.055911000000000     10.192900900000000
276    3     11.961663999999999      0.137627100000000      9.774922300000000
277    1      7.284041700000000      7.588180599999998      4.913797200000000
278    1      7.871930300000000      6.640082799999998      4.106724700000000
279    1      8.295006200000000      5.406536200000000      4.616454700000000
280    1      8.145485400000000      5.088804499999998      5.948549100000000
281    1      7.552499499999999      6.038601400000000      6.777709900000000
282    1      7.119229000000000      7.290838099999998      6.266280800000001
283    3      7.278944400000000      6.006318500000000      8.111503400000000
284    1      6.685958500000000      7.188892099999999      8.475110800000000
285    1      6.570419700000000      7.999362800000000      7.382589500000000
286    2      6.952717200000000      8.539676599999998      4.529800600000000
287    2      8.007858300000001      6.847373000000000      3.056680900000000
288    2      8.750365000000000      4.694613299999999      3.947009300000000
289    2      8.473411700000000      4.140706700000000      6.337643000000000
290    2      7.474340900000001      5.241723500000000      8.738471299999997
291    2      6.380120500000000      7.392784099999998      9.489473499999997
292    5      6.038601400000000      9.280484200000000      7.273847099999999
293    6      5.426925400000000     10.014495400000001      8.536278399999999
294    5      4.981761200000000     11.285422199999998      8.035043900000000
295    5      6.470172800000000     10.102848600000000      9.559136600000000
296    5      4.354793300000000      9.171741800000000      9.073194000000001
297    7      5.287599200000000      8.944062400000000     11.185175299999997
298    1     11.326200600000000      5.272307300000000      9.079990400000000
299    1     11.847824300000001      4.650436700000000      7.968779000000000
300    1     11.771364799999999      5.238325300000001      6.701250399999999
301    1     11.173281599999999      6.463376400000000      6.509252099999999
302    1     10.641463300000000      7.103937100000000      7.623861700000000
303    1     10.712825499999999      6.516048500000000      8.913478599999999
304    3     10.000902600000000      8.301802600000000      7.739400500000000
305    1      9.661082600000000      8.502296399999999      9.052804800000001
306    1     10.075662999999997      7.438659799999999      9.802107899999999
307    2     11.378872699999999      4.828842200000000     10.062070199999999
308    2     12.325271400000000      3.688746100000000      8.074123200000001
309    2     12.194440699999999      4.713303399999998      5.858496800000000
310    2     11.118910399999999      6.911938800000000      5.530570500000001
311    2      9.803806999999999      8.944062400000000      6.986699200000000
312    2      9.141158000000001      9.387527499999999      9.385828399999999
313    5      9.948230499999998      7.207582200000000     11.168184300000000
314    6      9.249900400000000      8.269519700000000     12.109485700000000
315    5      9.314466200000000      7.686728400000001     13.421190900000001
316    5      7.888921300000000      8.488703599999999     11.616746700000000
317    5      9.973716999999999      9.537048300000000     11.978655000000000
318    7      8.138688999999999     10.768895800000001     11.273528499999999
319    1      0.565800300000000     15.298696399999999     13.531632399999999
320    1      0.475748000000000     16.239997800000001     12.532561600000001
321    1      1.340589900000000      0.350014599999999     12.488384999999999
322    1      2.319271500000000      0.536915600000001     13.438181899999998
323    1      2.421217499999999     16.581516900000000     14.454243699999997
324    1      1.547880100000000     15.463509099999998     14.508614900000000
325    3      3.275864800000000     16.503358300000002     15.514482100000000
326    1      2.981920500000000     15.378554100000001     16.243396000000001
327    1      1.936974000000000     14.717604199999997     15.665701999999998
328    2     16.894151300000001     14.447447299999999     13.575809000000001
329    2     16.714046700000001     16.132954500000000     11.766267500000000
330    2      1.233546600000000      1.063636600000000     11.686409800000000
331    2      2.981920500000000      1.383067399999999     13.400801699999999
332    2      4.006477800000000      0.171609100000000     15.735365100000001
333    2      3.529030700000000     15.111795399999997      0.144423499999999
334    5      1.303209700000000     13.540127899999998     16.054795899999998
335    6      1.784055000000000     12.743250000000000      0.343218200000000
336    5      0.909018500000000     11.606552100000000      0.411182200000000
337    5      1.694002700000000     13.642073899999996      1.495208000000001
338    5      3.196007100000000     12.405129100000000      0.161414499999997
339    7      3.936814700000000     13.495951300000000      2.067804700000000
340    1      1.556375600000000      3.124644900000000     16.467677199999997
341    1      1.041548300000000      3.719329900000000     15.339474800000000
342    1     16.970610799999999      3.143335000000000     14.632649199999999
343    1     16.394615899999998      1.959062300000000     15.033636800000000
344    1     16.906044999999999      1.345687200000000     16.173732899999997
345    1      0.990575300000000      1.921682100000000     16.897549500000000
346    3     16.545835799999999      0.188600100000000     16.797302600000002
347    1      0.360209200000000      0.001699100000000      0.902222100000000
348    1      1.248838500000000      1.034751900000000      0.999070800000000
349    2      2.373642700000000      3.557915400000000      0.030583800000000
350    2      1.462925100000000      4.648737600000000     14.989460200000000
351    2     16.598507899999998      3.644569500000000     13.752515400000000
352    2     15.577348800000001      1.518995400000000     14.484827500000000
353    2     15.808426400000000     16.554331299999998     16.508455600000001
354    2      0.259962300000000     16.138051800000000      1.551278300000000
355    5      2.246210200000000      1.265829500000000      1.940372200000000
356    6      2.477287800000000      0.261661400000000      3.143335000000000
357    5      3.566410900000000      0.832559000000000      3.885841700000000
358    5      2.761037500000000     15.930761600000000      2.579233800000000
359    5      1.225051100000000      0.158016300000000      3.892638100000000
360    7      0.992274400000000     14.858629500000001      3.625879400000000
0.000000000000000      0.000000000000000      0.000000000000000
16.991000000000000      0.000000000000000      0.000000000000000
0.000000000000000     16.991000000000000      0.000000000000000
0.000000000000000      0.000000000000000     16.991000000000000
}
Hamiltonian = xTB {
  Method = "GFN2-xTB"
  kPointsAndWeights = SuperCellFolding {
2   0   0
0   2   0
0   0   2
0.5 0.5 0.5
  }
  ShellResolvedSCC = Yes
  SCC = Yes
  ReadInitialCharges = No
  InitialCharges = {}
  SCCTolerance = 1.0000000000000001E-005
  EwaldParameter = 0.0000000000000000
  EwaldTolerance = 1.0000000000000001E-009
  ConvergentSCCOnly = Yes
  SpinPolarisation = {}
  ElectricField = {}
  Solver = RelativelyRobust {}
  Charge = 0.0000000000000000
  MaxSCCIterations = 100
  Dispersion = {}
  Solvation = {}
  Electrostatics = GammaFunctional {}
  Differentiation = FiniteDiff {
    Delta = 1.2207031250000000E-004
  }
  ForceEvaluation = "Traditional"
  Mixer = Broyden {
    MixingParameter = 0.20000000000000001
    InverseJacobiWeight = 1.0000000000000000E-002
    MinimalWeight = 1.0000000000000000
    MaximalWeight = 100000.00000000000
    WeightFactor = 1.0000000000000000E-002
  }
  Filling = Fermi {
    Temperature = 9.5004460357391702E-004
    IndependentKFilling = No
  }
}
Driver = GeometryOptimization {
  LatticeOpt = No
  Optimizer = Rational {
    DiagLimit = 1.0000000000000000E-002
  }
  MovedAtoms = "1:-1"
  Convergence = {
    Energy = 1.7976931348623157E+308
    GradNorm = 1.7976931348623157E+308
    GradElem = 1.0000000000000000E-004
    DispNorm = 1.7976931348623157E+308
    DispElem = 1.7976931348623157E+308
  }
  MaxSteps = 7200
  OutputPrefix = "geo_end"
  AppendGeometries = No
}
Parallel = {
  Groups = 1
  UseOmpThreads = Yes
  Blacs = BlockSize {
32
  }
}
Analysis = {
  WriteEigenvectors = Yes
  WriteBandOut = Yes
  MullikenAnalysis = Yes